(set-info :smt-lib-version 2.7)
(set-logic QF_EIA)
(set-info :source |
Generated by: Florian Frohn
Generator: LoAT
Application: proving lower bounds on the worst-case runtime of transition systems
Target solver: SwInE
Time limit: 1.0
Benchmarks generated by the verification tool LoAT to evaluate the SMT solver
SwInE. We extracted all benchmarks with exponentiation that were generated by
LoAT when analyzing the examples from the category LIA-Lin (linear CHCs with
linear integer arithmetic) of the CHC competitions 2022 and 2023, and when
analyzing the examples from the categories "Termination of Integer Transition
Systems" and "Complexity of Integer Transition Systems" of the Termination and
Complexity Competition 2024. From the entire set, we selected those where
* SwInE v0.1.0 or SwInE-Z3 v0.1.2 failed or needed more than 1 second, or
* SwInE-Z3 v0.1.2 failed without phasing, a technique to prevent SwInE from
  computing with huge constants (described here
  https://arxiv.org/abs/2502.04761)
If several selected benchmarks only differed in lines not containing
exponentiation, we kept only one of them. This benchmark is known to be
satisfiable with the slightly different semantics of exponentiation used by the
versions of SwInE mentioned above.
|)
(set-info :license "https://creativecommons.org/licenses/by/4.0/")
(set-info :category "industrial")
(set-info :status unknown)

(declare-fun i1 () Int)
(declare-fun it1 () Int)
(declare-fun i2 () Int)
(declare-fun it2 () Int)
(declare-fun i3 () Int)
(declare-fun it3 () Int)
(declare-fun it4 () Int)
(declare-fun i4 () Int)
(declare-fun i5 () Int)
(declare-fun it5 () Int)
(declare-fun i6 () Int)
(declare-fun it6 () Int)
(declare-fun it92 () Int)
(declare-fun it13 () Int)
(declare-fun it488 () Int)
(declare-fun it491 () Int)
(declare-fun it492 () Int)
(declare-fun it493 () Int)
(declare-fun it494 () Int)
(declare-fun it495 () Int)
(declare-fun it496 () Int)
(declare-fun it498 () Int)
(declare-fun it547 () Int)
(declare-fun it548 () Int)
(declare-fun it549 () Int)
(declare-fun it550 () Int)
(declare-fun it551 () Int)
(declare-fun it552 () Int)
(declare-fun it499 () Int)
(declare-fun it117 () Int)
(declare-fun it553 () Int)
(declare-fun it732 () Int)
(declare-fun it733 () Int)
(declare-fun it734 () Int)
(declare-fun it735 () Int)
(declare-fun it736 () Int)
(declare-fun it737 () Int)
(assert (= (+ i1 (- 1)) 0))
(assert (= (+ it1 (- 2)) 0))
(assert (= (+ it2 (* i2 (- 1)) (- 1)) 0))
(assert (= (+ it3 (* i3 (- 1))) 0))
(assert (= (+ (* i4 (- 1)) it4) 0))
(assert (= (+ it5 (* i5 (- 1))) 0))
(assert (= (+ it6 (* i6 (- 1))) 0))
(assert (let ((a!1 (+ (* it92 (+ it488 (- 1)) (- 2)) (* it92 (- 2)) it3))
      (a!3 (> (+ (+ (* it92 (- 2)) it3) (* it13 (- 2)) 2) 0))
      (a!6 (> (+ (+ (* it92 (- 2)) it3) 1) 0)))
(let ((a!2 (+ a!1 (* it13 (- 2)) (* (+ it488 (- 1)) it13 (- 2))))
      (a!4 (+ (+ a!1 (* (+ it488 (- 1)) it13 (- 2))) 1))
      (a!5 (+ (+ a!1 (* (+ it488 (- 1)) it13 (- 2))) 2)))
  (and (>= (+ (* it1 (- 1)) 2) 0)
       (> (+ a!2 2) 0)
       (>= (+ it13 (- 1)) 0)
       a!3
       (>= (+ it92 (- 1)) 0)
       (> a!4 0)
       (>= (+ it1 (- 2)) 0)
       (>= (+ it488 (- 1)) 0)
       (> a!5 0)
       (> (+ a!2 1) 0)
       a!6))))
(assert (= (+ it491 (* it1 (- 1))) 0))
(assert (= (+ (* it488 it13 (- 2)) (* it2 (- 1)) (* it488 it92 (- 2)) it492) 0))
(assert (= (+ (* it488 it13 2) (* it488 it92 2) (* it3 (- 1)) it493) 0))
(assert (let ((a!1 (* (** (- 1) (+ (* it488 it13) (* it488 it92)))
              (+ 0 it4)
              (+ 0 (- 1)))))
  (= (+ (+ 0 it494) a!1) (+ 0 0))))
(assert (let ((a!1 (* (+ 0 it5)
              (** (- 1) (+ (* it488 it13) (* it488 it92)))
              (+ 0 (- 1)))))
  (= (+ (+ 0 it495) a!1) (+ 0 0))))
(assert (let ((a!1 (+ (* (+ 0 it488) (** it3 2) (+ 0 it13) (+ 0 (- 6)))
              (+ 0 (* it488 it13 (- 1)))
              (* (** it488 2) (+ 0 it3) (** it13 2) (+ 0 12))
              (+ 0 (* (* it488 it92) (- 1)))
              (* (** it488 3) (+ 0 it92) (** it13 2) (+ 0 (- 24)))
              (+ 0 (* it6 (- 3)))
              (* (* (** it488 2) (+ 0 it92))
                 (+ 0 it3)
                 (+ 0 it13)
                 (+ 0 24))
              (* (** it488 3) (** it92 3) (+ 0 (- 8)))
              (* (** it488 2) (** it13 2) (+ 0 6))
              (* (+ 0 (* it488 it92)) (** it3 2) (+ 0 (- 6)))
              (* (* (** it488 2) (+ 0 it92)) (+ 0 it13) (+ 0 12))
              (+ 0 (* it496 3))
              (+ 0 (* (* it488 it92) it3 (- 6)))
              (+ 0 (* it488 it3 it13 (- 6)))
              (* (** it488 3) (** it92 2) (+ 0 it13) (+ 0 (- 24)))
              (* (** it488 3) (** it13 3) (+ 0 (- 8)))
              (* (* (** it488 2) (** it92 2)) (+ 0 it3) (+ 0 12))
              (* (* (** it488 2) (** it92 2)) (+ 0 6)))))
  (= a!1 (+ 0 0))))
(assert (let ((a!1 (> (+ (+ (* it498 (- 2)) it493) 1) 0))
      (a!2 (> (+ (+ (* it498 (- 2)) it493) 2) 0)))
  (and (>= (+ it491 (- 2)) 0)
       a!1
       (>= (+ it498 (- 1)) 0)
       a!2
       (>= (+ (* it491 (- 1)) 2) 0))))
(assert (= (+ (* it491 (- 1)) it547) 0))
(assert (= (+ (* it498 (- 2)) (* it492 (- 1)) it548) 0))
(assert (= (+ (* it498 2) (* it493 (- 1)) it549) 0))
(assert (= (+ (+ 0 it550) (* (** (- 1) it498) (+ 0 it494) (+ 0 (- 1))))
   (+ 0 0)))
(assert (= (+ (* (** (- 1) it498) (+ 0 it495) (+ 0 (- 1))) (+ 0 it551))
   (+ 0 0)))
(assert (= (+ (+ 0 (* it552 3))
      (* (** it498 3) (+ 0 (- 8)))
      (+ 0 (* it498 (- 1)))
      (* (** it498 2) (+ 0 it493) (+ 0 12))
      (* (** it498 2) (+ 0 6))
      (+ 0 (* it498 it493 (- 6)))
      (+ 0 (* it496 (- 3)))
      (* (+ 0 it498) (** it493 2) (+ 0 (- 6))))
   (+ 0 0)))
(assert (let ((a!1 (+ (* it553 (- 2))
              (* (+ it117 (- 1)) it499 (- 2))
              (* (+ it117 (- 1)) it553 (- 2))
              (* it499 (- 2))
              it549))
      (a!2 (+ (* (+ it117 (- 1)) it499 (- 2))
              (* (+ it117 (- 1)) it553 (- 2))
              (* it499 (- 2))
              it549)))
  (and (> (+ a!1 1) 0)
       (> (+ (* it553 (- 2)) (* it499 (- 2)) it549 2) 0)
       (> (+ a!2 2) 0)
       (>= (+ it553 (- 1)) 0)
       (>= (+ it547 (- 2)) 0)
       (> (+ a!1 2) 0)
       (> (+ a!2 1) 0)
       (>= (+ (* it547 (- 1)) 2) 0)
       (>= (+ it499 (- 1)) 0)
       (>= (+ it117 (- 1)) 0)
       (> (+ (* it499 (- 2)) it549 1) 0))))
(assert (= (+ (* it547 (- 1)) it732) 0))
(assert (= (+ it733 (* it548 (- 1)) (* it117 it499 (- 2)) (* it553 it117 (- 2))) 0))
(assert (= (+ it734 (* it117 it499 2) (* it553 it117 2) (* it549 (- 1))) 0))
(assert (let ((a!1 (* (** (- 1) (+ (* it117 it499) (* it553 it117)))
              (+ 0 it550)
              (+ 0 (- 1)))))
  (= (+ a!1 (+ 0 it735)) (+ 0 0))))
(assert (let ((a!1 (* (** (- 1) (+ (* it117 it499) (* it553 it117)))
              (+ 0 it551)
              (+ 0 (- 1)))))
  (= (+ (+ 0 it736) a!1) (+ 0 0))))
(assert (let ((a!1 (+ 0 (+ (* (* it553 it117) it549 (- 6)) (* it552 (- 3))))))
(let ((a!2 (+ a!1
              (* (+ 0 (* it117 it499)) (** it549 2) (+ 0 (- 6)))
              (* (** it553 3) (** it117 3) (+ 0 (- 8)))
              (* (* (** it553 2) (** it117 2)) (+ 0 it549) (+ 0 12))
              (* (** it117 3) (** it499 3) (+ 0 (- 8)))
              (* (* (+ 0 it553) (** it117 2) (+ 0 it499))
                 (+ 0 it549)
                 (+ 0 24))
              (* (* (** it117 2) (** it499 2)) (+ 0 6))
              (* (* (** it117 2) (** it499 2)) (+ 0 it549) (+ 0 12))
              (* (+ 0 it553) (** it117 3) (** it499 2) (+ 0 (- 24)))
              (+ 0 (* it737 3))
              (* (* (+ 0 it553) (** it117 2) (+ 0 it499)) (+ 0 12))
              (* (+ 0 (* it553 it117)) (** it549 2) (+ 0 (- 6)))
              (* (* (** it553 2) (** it117 2)) (+ 0 6))
              (+ 0 (* (* it117 it499) it549 (- 6)))
              (+ 0 (* (* it117 it499) (- 1)))
              (* (** it553 2) (** it117 3) (+ 0 it499) (+ 0 (- 24)))
              (+ 0 (* (* it553 it117) (- 1))))))
  (= a!2 (+ 0 0)))))
(check-sat)
(exit)
